0000011 AB
335 370 404 438 472 507 541 576 610 643 682 715 749 786 819 853 878 905 929 955 981 1008 1032 1069 1108 1143 1180 1216 1237 1262 1285 1315 1345 1375 1405 1435
0000011 BA
359 378 413 449 486 520 555 589 624 658 691 730 763 797 834 867 901 926 953 977 1003 1029 1056 1080 1117 1156 1191 1228 1264 1283 1305 1328 1358 1388 1418 8 38
